c File: flat75_3_0.col
c
c SOURCE: Joseph Culberson (joe@cs.ualberta.ca)
c DESCRIPTION: Quasi-random coloring problem
c              generated with flatness = 0
c                             probability = 0.096
c                             known coloring = 3
c                             random seed = 1034
c              Creation Date:  Wed Feb 24 10:41:56 1999
c Maximum degree = 8 Minimum degree = 0
c COLOR VERIFICATION: Using the permuted order
c under simple greedy yields the specified
c coloring number
c Color = 3 specified partitions = 3
c p edge 75 180
c cnf created by edge2cnf
p cnf 225 840
-1 -2 0
-1 -3 0
-2 -3 0
1 2 3 0
-4 -5 0
-4 -6 0
-5 -6 0
4 5 6 0
-7 -8 0
-7 -9 0
-8 -9 0
7 8 9 0
-10 -11 0
-10 -12 0
-11 -12 0
10 11 12 0
-13 -14 0
-13 -15 0
-14 -15 0
13 14 15 0
-16 -17 0
-16 -18 0
-17 -18 0
16 17 18 0
-19 -20 0
-19 -21 0
-20 -21 0
19 20 21 0
-22 -23 0
-22 -24 0
-23 -24 0
22 23 24 0
-25 -26 0
-25 -27 0
-26 -27 0
25 26 27 0
-28 -29 0
-28 -30 0
-29 -30 0
28 29 30 0
-31 -32 0
-31 -33 0
-32 -33 0
31 32 33 0
-34 -35 0
-34 -36 0
-35 -36 0
34 35 36 0
-37 -38 0
-37 -39 0
-38 -39 0
37 38 39 0
-40 -41 0
-40 -42 0
-41 -42 0
40 41 42 0
-43 -44 0
-43 -45 0
-44 -45 0
43 44 45 0
-46 -47 0
-46 -48 0
-47 -48 0
46 47 48 0
-49 -50 0
-49 -51 0
-50 -51 0
49 50 51 0
-52 -53 0
-52 -54 0
-53 -54 0
52 53 54 0
-55 -56 0
-55 -57 0
-56 -57 0
55 56 57 0
-58 -59 0
-58 -60 0
-59 -60 0
58 59 60 0
-61 -62 0
-61 -63 0
-62 -63 0
61 62 63 0
-64 -65 0
-64 -66 0
-65 -66 0
64 65 66 0
-67 -68 0
-67 -69 0
-68 -69 0
67 68 69 0
-70 -71 0
-70 -72 0
-71 -72 0
70 71 72 0
-73 -74 0
-73 -75 0
-74 -75 0
73 74 75 0
-76 -77 0
-76 -78 0
-77 -78 0
76 77 78 0
-79 -80 0
-79 -81 0
-80 -81 0
79 80 81 0
-82 -83 0
-82 -84 0
-83 -84 0
82 83 84 0
-85 -86 0
-85 -87 0
-86 -87 0
85 86 87 0
-88 -89 0
-88 -90 0
-89 -90 0
88 89 90 0
-91 -92 0
-91 -93 0
-92 -93 0
91 92 93 0
-94 -95 0
-94 -96 0
-95 -96 0
94 95 96 0
-97 -98 0
-97 -99 0
-98 -99 0
97 98 99 0
-100 -101 0
-100 -102 0
-101 -102 0
100 101 102 0
-103 -104 0
-103 -105 0
-104 -105 0
103 104 105 0
-106 -107 0
-106 -108 0
-107 -108 0
106 107 108 0
-109 -110 0
-109 -111 0
-110 -111 0
109 110 111 0
-112 -113 0
-112 -114 0
-113 -114 0
112 113 114 0
-115 -116 0
-115 -117 0
-116 -117 0
115 116 117 0
-118 -119 0
-118 -120 0
-119 -120 0
118 119 120 0
-121 -122 0
-121 -123 0
-122 -123 0
121 122 123 0
-124 -125 0
-124 -126 0
-125 -126 0
124 125 126 0
-127 -128 0
-127 -129 0
-128 -129 0
127 128 129 0
-130 -131 0
-130 -132 0
-131 -132 0
130 131 132 0
-133 -134 0
-133 -135 0
-134 -135 0
133 134 135 0
-136 -137 0
-136 -138 0
-137 -138 0
136 137 138 0
-139 -140 0
-139 -141 0
-140 -141 0
139 140 141 0
-142 -143 0
-142 -144 0
-143 -144 0
142 143 144 0
-145 -146 0
-145 -147 0
-146 -147 0
145 146 147 0
-148 -149 0
-148 -150 0
-149 -150 0
148 149 150 0
-151 -152 0
-151 -153 0
-152 -153 0
151 152 153 0
-154 -155 0
-154 -156 0
-155 -156 0
154 155 156 0
-157 -158 0
-157 -159 0
-158 -159 0
157 158 159 0
-160 -161 0
-160 -162 0
-161 -162 0
160 161 162 0
-163 -164 0
-163 -165 0
-164 -165 0
163 164 165 0
-166 -167 0
-166 -168 0
-167 -168 0
166 167 168 0
-169 -170 0
-169 -171 0
-170 -171 0
169 170 171 0
-172 -173 0
-172 -174 0
-173 -174 0
172 173 174 0
-175 -176 0
-175 -177 0
-176 -177 0
175 176 177 0
-178 -179 0
-178 -180 0
-179 -180 0
178 179 180 0
-181 -182 0
-181 -183 0
-182 -183 0
181 182 183 0
-184 -185 0
-184 -186 0
-185 -186 0
184 185 186 0
-187 -188 0
-187 -189 0
-188 -189 0
187 188 189 0
-190 -191 0
-190 -192 0
-191 -192 0
190 191 192 0
-193 -194 0
-193 -195 0
-194 -195 0
193 194 195 0
-196 -197 0
-196 -198 0
-197 -198 0
196 197 198 0
-199 -200 0
-199 -201 0
-200 -201 0
199 200 201 0
-202 -203 0
-202 -204 0
-203 -204 0
202 203 204 0
-205 -206 0
-205 -207 0
-206 -207 0
205 206 207 0
-208 -209 0
-208 -210 0
-209 -210 0
208 209 210 0
-211 -212 0
-211 -213 0
-212 -213 0
211 212 213 0
-214 -215 0
-214 -216 0
-215 -216 0
214 215 216 0
-217 -218 0
-217 -219 0
-218 -219 0
217 218 219 0
-220 -221 0
-220 -222 0
-221 -222 0
220 221 222 0
-223 -224 0
-223 -225 0
-224 -225 0
223 224 225 0
-40 -1 0
-41 -2 0
-42 -3 0
-115 -1 0
-116 -2 0
-117 -3 0
-148 -1 0
-149 -2 0
-150 -3 0
-202 -1 0
-203 -2 0
-204 -3 0
-208 -1 0
-209 -2 0
-210 -3 0
-82 -4 0
-83 -5 0
-84 -6 0
-91 -4 0
-92 -5 0
-93 -6 0
-100 -4 0
-101 -5 0
-102 -6 0
-142 -4 0
-143 -5 0
-144 -6 0
-130 -7 0
-131 -8 0
-132 -9 0
-181 -7 0
-182 -8 0
-183 -9 0
-13 -10 0
-14 -11 0
-15 -12 0
-70 -10 0
-71 -11 0
-72 -12 0
-169 -10 0
-170 -11 0
-171 -12 0
-103 -13 0
-104 -14 0
-105 -15 0
-115 -13 0
-116 -14 0
-117 -15 0
-124 -13 0
-125 -14 0
-126 -15 0
-133 -13 0
-134 -14 0
-135 -15 0
-160 -13 0
-161 -14 0
-162 -15 0
-193 -13 0
-194 -14 0
-195 -15 0
-220 -13 0
-221 -14 0
-222 -15 0
-112 -16 0
-113 -17 0
-114 -18 0
-157 -16 0
-158 -17 0
-159 -18 0
-163 -16 0
-164 -17 0
-165 -18 0
-187 -16 0
-188 -17 0
-189 -18 0
-193 -16 0
-194 -17 0
-195 -18 0
-37 -19 0
-38 -20 0
-39 -21 0
-52 -19 0
-53 -20 0
-54 -21 0
-70 -19 0
-71 -20 0
-72 -21 0
-139 -19 0
-140 -20 0
-141 -21 0
-163 -19 0
-164 -20 0
-165 -21 0
-187 -19 0
-188 -20 0
-189 -21 0
-202 -19 0
-203 -20 0
-204 -21 0
-40 -22 0
-41 -23 0
-42 -24 0
-64 -22 0
-65 -23 0
-66 -24 0
-88 -22 0
-89 -23 0
-90 -24 0
-199 -22 0
-200 -23 0
-201 -24 0
-121 -25 0
-122 -26 0
-123 -27 0
-157 -25 0
-158 -26 0
-159 -27 0
-172 -25 0
-173 -26 0
-174 -27 0
-184 -25 0
-185 -26 0
-186 -27 0
-205 -25 0
-206 -26 0
-207 -27 0
-208 -25 0
-209 -26 0
-210 -27 0
-46 -28 0
-47 -29 0
-48 -30 0
-49 -28 0
-50 -29 0
-51 -30 0
-118 -28 0
-119 -29 0
-120 -30 0
-181 -28 0
-182 -29 0
-183 -30 0
-184 -28 0
-185 -29 0
-186 -30 0
-82 -31 0
-83 -32 0
-84 -33 0
-151 -31 0
-152 -32 0
-153 -33 0
-181 -31 0
-182 -32 0
-183 -33 0
-208 -31 0
-209 -32 0
-210 -33 0
-223 -31 0
-224 -32 0
-225 -33 0
-67 -34 0
-68 -35 0
-69 -36 0
-85 -34 0
-86 -35 0
-87 -36 0
-118 -34 0
-119 -35 0
-120 -36 0
-184 -34 0
-185 -35 0
-186 -36 0
-193 -34 0
-194 -35 0
-195 -36 0
-223 -34 0
-224 -35 0
-225 -36 0
-88 -37 0
-89 -38 0
-90 -39 0
-124 -37 0
-125 -38 0
-126 -39 0
-160 -37 0
-161 -38 0
-162 -39 0
-52 -40 0
-53 -41 0
-54 -42 0
-61 -40 0
-62 -41 0
-63 -42 0
-85 -40 0
-86 -41 0
-87 -42 0
-103 -40 0
-104 -41 0
-105 -42 0
-208 -40 0
-209 -41 0
-210 -42 0
-76 -43 0
-77 -44 0
-78 -45 0
-88 -43 0
-89 -44 0
-90 -45 0
-94 -43 0
-95 -44 0
-96 -45 0
-100 -43 0
-101 -44 0
-102 -45 0
-196 -43 0
-197 -44 0
-198 -45 0
-205 -43 0
-206 -44 0
-207 -45 0
-49 -46 0
-50 -47 0
-51 -48 0
-76 -46 0
-77 -47 0
-78 -48 0
-151 -46 0
-152 -47 0
-153 -48 0
-172 -46 0
-173 -47 0
-174 -48 0
-190 -46 0
-191 -47 0
-192 -48 0
-211 -46 0
-212 -47 0
-213 -48 0
-109 -49 0
-110 -50 0
-111 -51 0
-127 -49 0
-128 -50 0
-129 -51 0
-133 -49 0
-134 -50 0
-135 -51 0
-154 -49 0
-155 -50 0
-156 -51 0
-208 -49 0
-209 -50 0
-210 -51 0
-73 -52 0
-74 -53 0
-75 -54 0
-127 -52 0
-128 -53 0
-129 -54 0
-163 -52 0
-164 -53 0
-165 -54 0
-175 -52 0
-176 -53 0
-177 -54 0
-220 -52 0
-221 -53 0
-222 -54 0
-151 -55 0
-152 -56 0
-153 -57 0
-154 -55 0
-155 -56 0
-156 -57 0
-199 -55 0
-200 -56 0
-201 -57 0
-94 -58 0
-95 -59 0
-96 -60 0
-133 -58 0
-134 -59 0
-135 -60 0
-172 -58 0
-173 -59 0
-174 -60 0
-211 -58 0
-212 -59 0
-213 -60 0
-109 -61 0
-110 -62 0
-111 -63 0
-127 -61 0
-128 -62 0
-129 -63 0
-148 -61 0
-149 -62 0
-150 -63 0
-178 -61 0
-179 -62 0
-180 -63 0
-187 -61 0
-188 -62 0
-189 -63 0
-205 -61 0
-206 -62 0
-207 -63 0
-109 -64 0
-110 -65 0
-111 -66 0
-121 -64 0
-122 -65 0
-123 -66 0
-148 -64 0
-149 -65 0
-150 -66 0
-148 -67 0
-149 -68 0
-150 -69 0
-196 -67 0
-197 -68 0
-198 -69 0
-208 -67 0
-209 -68 0
-210 -69 0
-136 -70 0
-137 -71 0
-138 -72 0
-184 -70 0
-185 -71 0
-186 -72 0
-202 -70 0
-203 -71 0
-204 -72 0
-76 -73 0
-77 -74 0
-78 -75 0
-166 -73 0
-167 -74 0
-168 -75 0
-94 -76 0
-95 -77 0
-96 -78 0
-97 -76 0
-98 -77 0
-99 -78 0
-106 -76 0
-107 -77 0
-108 -78 0
-202 -76 0
-203 -77 0
-204 -78 0
-154 -79 0
-155 -80 0
-156 -81 0
-163 -79 0
-164 -80 0
-165 -81 0
-97 -82 0
-98 -83 0
-99 -84 0
-166 -82 0
-167 -83 0
-168 -84 0
-100 -85 0
-101 -86 0
-102 -87 0
-211 -85 0
-212 -86 0
-213 -87 0
-223 -85 0
-224 -86 0
-225 -87 0
-172 -88 0
-173 -89 0
-174 -90 0
-187 -88 0
-188 -89 0
-189 -90 0
-142 -91 0
-143 -92 0
-144 -93 0
-163 -91 0
-164 -92 0
-165 -93 0
-193 -91 0
-194 -92 0
-195 -93 0
-133 -94 0
-134 -95 0
-135 -96 0
-166 -94 0
-167 -95 0
-168 -96 0
-175 -94 0
-176 -95 0
-177 -96 0
-196 -94 0
-197 -95 0
-198 -96 0
-223 -97 0
-224 -98 0
-225 -99 0
-172 -100 0
-173 -101 0
-174 -102 0
-109 -103 0
-110 -104 0
-111 -105 0
-157 -103 0
-158 -104 0
-159 -105 0
-118 -106 0
-119 -107 0
-120 -108 0
-127 -106 0
-128 -107 0
-129 -108 0
-136 -106 0
-137 -107 0
-138 -108 0
-142 -106 0
-143 -107 0
-144 -108 0
-184 -106 0
-185 -107 0
-186 -108 0
-196 -106 0
-197 -107 0
-198 -108 0
-223 -106 0
-224 -107 0
-225 -108 0
-220 -109 0
-221 -110 0
-222 -111 0
-121 -112 0
-122 -113 0
-123 -114 0
-139 -112 0
-140 -113 0
-141 -114 0
-181 -115 0
-182 -116 0
-183 -117 0
-190 -115 0
-191 -116 0
-192 -117 0
-157 -118 0
-158 -119 0
-159 -120 0
-166 -118 0
-167 -119 0
-168 -120 0
-187 -118 0
-188 -119 0
-189 -120 0
-148 -121 0
-149 -122 0
-150 -123 0
-160 -121 0
-161 -122 0
-162 -123 0
-163 -121 0
-164 -122 0
-165 -123 0
-142 -124 0
-143 -125 0
-144 -126 0
-202 -124 0
-203 -125 0
-204 -126 0
-184 -127 0
-185 -128 0
-186 -129 0
-133 -130 0
-134 -131 0
-135 -132 0
-196 -130 0
-197 -131 0
-198 -132 0
-202 -130 0
-203 -131 0
-204 -132 0
-163 -133 0
-164 -134 0
-165 -135 0
-208 -133 0
-209 -134 0
-210 -135 0
-172 -136 0
-173 -137 0
-174 -138 0
-160 -142 0
-161 -143 0
-162 -144 0
-178 -142 0
-179 -143 0
-180 -144 0
-181 -142 0
-182 -143 0
-183 -144 0
-166 -145 0
-167 -146 0
-168 -147 0
-169 -145 0
-170 -146 0
-171 -147 0
-187 -145 0
-188 -146 0
-189 -147 0
-181 -148 0
-182 -149 0
-183 -150 0
-199 -151 0
-200 -152 0
-201 -153 0
-181 -154 0
-182 -155 0
-183 -156 0
-202 -160 0
-203 -161 0
-204 -162 0
-220 -160 0
-221 -161 0
-222 -162 0
-199 -178 0
-200 -179 0
-201 -180 0
-190 -184 0
-191 -185 0
-192 -186 0
-199 -190 0
-200 -191 0
-201 -192 0
-217 -196 0
-218 -197 0
-219 -198 0
-223 -211 0
-224 -212 0
-225 -213 0
